24 3
5 8 8
0 0 0 0 22 2 3 4 5 6 7 8 9 10 11 12 13 14 15 16 17 18 19 20 21 22 23
4 3 3 2 1 24
2 4 2 1 1 21
6 1 3 1 1 24
3 4 2 2 1 8
5 4 3 1 1 11
5 4 3 2 1 24
2 3 3 2 1 16
6 4 1 2 1 24
2 3 3 3 1 24
3 5 3 3 1 24
4 3 3 1 1 24
2 5 2 1 1 24
5 3 1 3 1 24
4 5 3 1 1 24
5 4 2 3 1 21
2 5 2 2 1 24
2 4 3 3 1 24
3 4 3 2 1 24
2 4 2 3 1 24
2 4 1 2 1 24
4 4 1 2 1 24
5 3 3 1 1 24
0 0 0 0 0
